0000000000000000
0000000000000000
0000111100000111
0111110011110100
0111100001111100
0000000000110000
0000000000110000
0000000000110000
0000000000110000
0000000000011000
0000000000011000
0000000000011000
0000000000011000
0000000000110000
0000000000110000
0000000000000000